instances/shortest_path/discrete_knapsack_uncertainty/nohadani_9_16.lp
\ Model nohadani_9_16
\ LP format - for model browsing. Use MPS format to capture full model detail.
\ Signature: 0x3d742310a829b0f1
Minimize
  61.61168720299745 y[0,2] + 43.93176527297759 y[0,4]
   + 56.60388679233962 y[0,5] + 76.94153624668537 y[0,6]
   + 9.486832980505138 y[0,7] + 76.83749084919418 y[0,8]
   + 45.5411901469428 y[1,2] + 15.65247584249853 y[1,3]
   + 47.01063709417264 y[1,5] + 25.49509756796392 y[1,6]
   + 84.581321815162 y[1,8] + 61.61168720299745 y[2,0]
   + 45.5411901469428 y[2,1] + 43.41658669218482 y[2,3]
   + 6.324555320336759 y[2,5] + 35.38361202590826 y[2,6]
   + 65.06919393998976 y[2,7] + 84.5931439302264 y[2,8]
   + 15.65247584249853 y[3,1] + 43.41658669218482 y[3,2]
   + 42.72001872658765 y[3,5] + 12.36931687685298 y[3,6]
   + 68.94200461257273 y[3,8] + 43.93176527297759 y[4,0]
   + 82.76472678623425 y[4,5] + 86.68333173107735 y[4,6]
   + 34.52535300326414 y[4,7] + 51.24451190127583 y[4,8]
   + 56.60388679233962 y[5,0] + 47.01063709417264 y[5,1]
   + 6.324555320336759 y[5,2] + 42.72001872658765 y[5,3]
   + 82.76472678623425 y[5,4] + 33.28663395418648 y[5,6]
   + 59.54829972383762 y[5,7] + 78.91767862779544 y[5,8]
   + 76.94153624668537 y[6,0] + 25.49509756796392 y[6,1]
   + 35.38361202590826 y[6,2] + 12.36931687685298 y[6,3]
   + 86.68333173107735 y[6,4] + 33.28663395418648 y[6,5]
   + 75.96051605933177 y[6,7] + 62.0966987850401 y[6,8]
   + 9.486832980505138 y[7,0] + 65.06919393998976 y[7,2]
   + 34.52535300326414 y[7,4] + 59.54829972383762 y[7,5]
   + 75.96051605933177 y[7,6] + 69.06518659932803 y[7,8]
   + 76.83749084919418 y[8,0] + 84.581321815162 y[8,1]
   + 84.5931439302264 y[8,2] + 68.94200461257273 y[8,3]
   + 51.24451190127583 y[8,4] + 78.91767862779544 y[8,5]
   + 62.0966987850401 y[8,6] + 69.06518659932803 y[8,7] + x[0,2] + x[0,4]
   + x[0,5] + x[0,6] + x[0,7] + x[0,8] + x[1,2] + x[1,3] + x[1,5] + x[1,6]
   + x[1,8] + x[2,0] + x[2,1] + x[2,3] + x[2,5] + x[2,6] + x[2,7] + x[2,8]
   + x[3,1] + x[3,2] + x[3,5] + x[3,6] + x[3,8] + x[4,0] + x[4,5] + x[4,6]
   + x[4,7] + x[4,8] + x[5,0] + x[5,1] + x[5,2] + x[5,3] + x[5,4] + x[5,6]
   + x[5,7] + x[5,8] + x[6,0] + x[6,1] + x[6,2] + x[6,3] + x[6,4] + x[6,5]
   + x[6,7] + x[6,8] + x[7,0] + x[7,2] + x[7,4] + x[7,5] + x[7,6] + x[7,8]
   + x[8,0] + x[8,1] + x[8,2] + x[8,3] + x[8,4] + x[8,5] + x[8,6] + x[8,7]
   + 6.161168720299745 r[0,2] + 4.39317652729776 r[0,4]
   + 5.660388679233963 r[0,5] + 7.694153624668537 r[0,6]
   + 0.9486832980505139 r[0,7] + 7.683749084919419 r[0,8]
   + 4.55411901469428 r[1,2] + 1.565247584249853 r[1,3]
   + 4.701063709417264 r[1,5] + 2.549509756796393 r[1,6]
   + 8.4581321815162 r[1,8] + 6.161168720299745 r[2,0]
   + 4.55411901469428 r[2,1] + 4.341658669218482 r[2,3]
   + 0.632455532033676 r[2,5] + 3.538361202590826 r[2,6]
   + 6.506919393998976 r[2,7] + 8.459314393022641 r[2,8]
   + 1.565247584249853 r[3,1] + 4.341658669218482 r[3,2]
   + 4.272001872658765 r[3,5] + 1.236931687685298 r[3,6]
   + 6.894200461257274 r[3,8] + 4.39317652729776 r[4,0]
   + 8.276472678623426 r[4,5] + 8.668333173107735 r[4,6]
   + 3.452535300326414 r[4,7] + 5.124451190127584 r[4,8]
   + 5.660388679233963 r[5,0] + 4.701063709417264 r[5,1]
   + 0.632455532033676 r[5,2] + 4.272001872658765 r[5,3]
   + 8.276472678623426 r[5,4] + 3.328663395418648 r[5,6]
   + 5.954829972383763 r[5,7] + 7.891767862779544 r[5,8]
   + 7.694153624668537 r[6,0] + 2.549509756796393 r[6,1]
   + 3.538361202590826 r[6,2] + 1.236931687685298 r[6,3]
   + 8.668333173107735 r[6,4] + 3.328663395418648 r[6,5]
   + 7.596051605933177 r[6,7] + 6.20966987850401 r[6,8]
   + 0.9486832980505139 r[7,0] + 6.506919393998976 r[7,2]
   + 3.452535300326414 r[7,4] + 5.954829972383763 r[7,5]
   + 7.596051605933177 r[7,6] + 6.906518659932804 r[7,8]
   + 7.683749084919419 r[8,0] + 8.4581321815162 r[8,1]
   + 8.459314393022641 r[8,2] + 6.894200461257274 r[8,3]
   + 5.124451190127584 r[8,4] + 7.891767862779544 r[8,5]
   + 6.20966987850401 r[8,6] + 6.906518659932804 r[8,7]
Subject To
 flow_cons_inner_nodes[0]: - y[0,2] - y[0,4] - y[0,5] - y[0,6] - y[0,7]
   - y[0,8] + y[2,0] + y[4,0] + y[5,0] + y[6,0] + y[7,0] + y[8,0] = 0
 flow_cons_inner_nodes[2]: y[0,2] + y[1,2] - y[2,0] - y[2,1] - y[2,3]
   - y[2,5] - y[2,6] - y[2,7] - y[2,8] + y[3,2] + y[5,2] + y[6,2] + y[7,2]
   + y[8,2] = 0
 flow_cons_inner_nodes[3]: y[1,3] + y[2,3] - y[3,1] - y[3,2] - y[3,5]
   - y[3,6] - y[3,8] + y[5,3] + y[6,3] + y[8,3] = 0
 flow_cons_inner_nodes[5]: y[0,5] + y[1,5] + y[2,5] + y[3,5] + y[4,5]
   - y[5,0] - y[5,1] - y[5,2] - y[5,3] - y[5,4] - y[5,6] - y[5,7] - y[5,8]
   + y[6,5] + y[7,5] + y[8,5] = 0
 flow_cons_inner_nodes[6]: y[0,6] + y[1,6] + y[2,6] + y[3,6] + y[4,6]
   + y[5,6] - y[6,0] - y[6,1] - y[6,2] - y[6,3] - y[6,4] - y[6,5] - y[6,7]
   - y[6,8] + y[7,6] + y[8,6] = 0
 flow_cons_inner_nodes[7]: y[0,7] + y[2,7] + y[4,7] + y[5,7] + y[6,7]
   - y[7,0] - y[7,2] - y[7,4] - y[7,5] - y[7,6] - y[7,8] + y[8,7] = 0
 flow_cons_inner_nodes[8]: y[0,8] + y[1,8] + y[2,8] + y[3,8] + y[4,8]
   + y[5,8] + y[6,8] + y[7,8] - y[8,0] - y[8,1] - y[8,2] - y[8,3] - y[8,4]
   - y[8,5] - y[8,6] - y[8,7] = 0
 flow_cons_source: y[1,2] + y[1,3] + y[1,5] + y[1,6] + y[1,8] - y[2,1]
   - y[3,1] - y[5,1] - y[6,1] - y[8,1] = 1
 flow_cons_target: y[0,4] - y[4,0] - y[4,5] - y[4,6] - y[4,7] - y[4,8]
   + y[5,4] + y[6,4] + y[7,4] + y[8,4] = 1
 primal_lower: 4.028915923747237 x[0,2] + 3.146538841614289 x[0,4]
   + 3.082974631104285 x[0,5] + 3.819145404687512 x[0,6]
   + 0.175738528548836 x[0,7] + 0.3029949538726707 x[0,8]
   + 2.809394306361682 x[1,2] + 3.931412926472949 x[1,3]
   + 0.8369575529831929 x[1,5] + 1.761226990575568 x[1,6]
   + 3.558019083940746 x[1,8] + 2.848184729176903 x[2,0]
   + 1.595971497299466 x[2,1] + 3.210415847806908 x[2,3]
   + 0.0869477929548545 x[2,5] + 1.270678895409425 x[2,6]
   + 0.2125612689373546 x[2,7] + 0.6180271053009686 x[2,8]
   + 3.372453350743695 x[3,1] + 3.613130345519808 x[3,2]
   + 2.309362314919076 x[3,5] + 2.236808135828606 x[3,6]
   + 1.606685184477249 x[3,8] + 1.838143814345401 x[4,0]
   + 3.442393322056616 x[4,5] + 2.93133416903868 x[4,6]
   + 1.026508942329215 x[4,7] + 2.511015041242696 x[4,8]
   + 0.4258035258032489 x[5,0] + 2.275521219402409 x[5,1]
   + 3.757631087747278 x[5,2] + 1.964524497646716 x[5,3]
   + 1.4942098627978 x[5,4] + 2.245322362015466 x[5,6]
   + 3.081941281693054 x[5,7] + 0.7726636193328876 x[5,8]
   + 0.5198155814673427 x[6,0] + 0.7463539111235418 x[6,1]
   + 2.125847208441678 x[6,2] + 0.6496583014703126 x[6,3]
   + 2.235860830769249 x[6,4] + 4.163303514630521 x[6,5]
   + 4.051855932177562 x[6,7] + 3.534726547032072 x[6,8]
   + 5.2954939936686795e-04 x[7,0] + 3.780978025939528 x[7,2]
   + 3.379997067537285 x[7,4] + 4.289138481556204 x[7,5]
   + 2.166202228902117 x[7,6] + 3.43011234464215 x[7,8]
   + 1.216357129668618 x[8,0] + 0.9008940275000971 x[8,1]
   + 2.87671348972965 x[8,2] + 1.653507472548975 x[8,3]
   + 0.7832900373834422 x[8,4] + 1.242222058423896 x[8,5]
   + 2.873922712116587 x[8,6] + 3.863761136363149 x[8,7] + 47 u[0,2]
   + 12 u[0,4] + 66 u[0,5] + 79 u[0,6] + 56 u[0,7] + 37 u[0,8] + 25 u[1,2]
   + 39 u[1,3] + 5 u[1,5] + 86 u[1,6] + 7 u[1,8] + 95 u[2,0] + 8 u[2,1]
   + 40 u[2,3] + 12 u[2,5] + 92 u[2,6] + 65 u[2,7] + 92 u[2,8] + 65 u[3,1]
   + 34 u[3,2] + 85 u[3,5] + 63 u[3,6] + 72 u[3,8] + 38 u[4,0] + 64 u[4,5]
   + 4 u[4,6] + 14 u[4,7] + 35 u[4,8] + 13 u[5,0] + 47 u[5,1] + 21 u[5,2]
   + 27 u[5,3] + 99 u[5,4] + 65 u[5,6] + 80 u[5,7] + 89 u[5,8] + 52 u[6,0]
   + 72 u[6,1] + 100 u[6,2] + 6 u[6,3] + 11 u[6,4] + 41 u[6,5] + 42 u[6,7]
   + 41 u[6,8] + 55 u[7,0] + 22 u[7,2] + 17 u[7,4] + u[7,5] + 39 u[7,6]
   + 40 u[7,8] + 30 u[8,0] + 48 u[8,1] + 57 u[8,2] + 92 u[8,3] + 100 u[8,4]
   + 35 u[8,5] + 53 u[8,6] + 94 u[8,7] <= 256
 mccormick1[0,2]: - u[0,2] + r[0,2] <= 0
 mccormick1[0,4]: - u[0,4] + r[0,4] <= 0
 mccormick1[0,5]: - u[0,5] + r[0,5] <= 0
 mccormick1[0,6]: - u[0,6] + r[0,6] <= 0
 mccormick1[0,7]: - u[0,7] + r[0,7] <= 0
 mccormick1[0,8]: - u[0,8] + r[0,8] <= 0
 mccormick1[1,2]: - u[1,2] + r[1,2] <= 0
 mccormick1[1,3]: - u[1,3] + r[1,3] <= 0
 mccormick1[1,5]: - u[1,5] + r[1,5] <= 0
 mccormick1[1,6]: - u[1,6] + r[1,6] <= 0
 mccormick1[1,8]: - u[1,8] + r[1,8] <= 0
 mccormick1[2,0]: - u[2,0] + r[2,0] <= 0
 mccormick1[2,1]: - u[2,1] + r[2,1] <= 0
 mccormick1[2,3]: - u[2,3] + r[2,3] <= 0
 mccormick1[2,5]: - u[2,5] + r[2,5] <= 0
 mccormick1[2,6]: - u[2,6] + r[2,6] <= 0
 mccormick1[2,7]: - u[2,7] + r[2,7] <= 0
 mccormick1[2,8]: - u[2,8] + r[2,8] <= 0
 mccormick1[3,1]: - u[3,1] + r[3,1] <= 0
 mccormick1[3,2]: - u[3,2] + r[3,2] <= 0
 mccormick1[3,5]: - u[3,5] + r[3,5] <= 0
 mccormick1[3,6]: - u[3,6] + r[3,6] <= 0
 mccormick1[3,8]: - u[3,8] + r[3,8] <= 0
 mccormick1[4,0]: - u[4,0] + r[4,0] <= 0
 mccormick1[4,5]: - u[4,5] + r[4,5] <= 0
 mccormick1[4,6]: - u[4,6] + r[4,6] <= 0
 mccormick1[4,7]: - u[4,7] + r[4,7] <= 0
 mccormick1[4,8]: - u[4,8] + r[4,8] <= 0
 mccormick1[5,0]: - u[5,0] + r[5,0] <= 0
 mccormick1[5,1]: - u[5,1] + r[5,1] <= 0
 mccormick1[5,2]: - u[5,2] + r[5,2] <= 0
 mccormick1[5,3]: - u[5,3] + r[5,3] <= 0
 mccormick1[5,4]: - u[5,4] + r[5,4] <= 0
 mccormick1[5,6]: - u[5,6] + r[5,6] <= 0
 mccormick1[5,7]: - u[5,7] + r[5,7] <= 0
 mccormick1[5,8]: - u[5,8] + r[5,8] <= 0
 mccormick1[6,0]: - u[6,0] + r[6,0] <= 0
 mccormick1[6,1]: - u[6,1] + r[6,1] <= 0
 mccormick1[6,2]: - u[6,2] + r[6,2] <= 0
 mccormick1[6,3]: - u[6,3] + r[6,3] <= 0
 mccormick1[6,4]: - u[6,4] + r[6,4] <= 0
 mccormick1[6,5]: - u[6,5] + r[6,5] <= 0
 mccormick1[6,7]: - u[6,7] + r[6,7] <= 0
 mccormick1[6,8]: - u[6,8] + r[6,8] <= 0
 mccormick1[7,0]: - u[7,0] + r[7,0] <= 0
 mccormick1[7,2]: - u[7,2] + r[7,2] <= 0
 mccormick1[7,4]: - u[7,4] + r[7,4] <= 0
 mccormick1[7,5]: - u[7,5] + r[7,5] <= 0
 mccormick1[7,6]: - u[7,6] + r[7,6] <= 0
 mccormick1[7,8]: - u[7,8] + r[7,8] <= 0
 mccormick1[8,0]: - u[8,0] + r[8,0] <= 0
 mccormick1[8,1]: - u[8,1] + r[8,1] <= 0
 mccormick1[8,2]: - u[8,2] + r[8,2] <= 0
 mccormick1[8,3]: - u[8,3] + r[8,3] <= 0
 mccormick1[8,4]: - u[8,4] + r[8,4] <= 0
 mccormick1[8,5]: - u[8,5] + r[8,5] <= 0
 mccormick1[8,6]: - u[8,6] + r[8,6] <= 0
 mccormick1[8,7]: - u[8,7] + r[8,7] <= 0
 mccormick2[0,2]: - y[0,2] + r[0,2] <= 0
 mccormick2[0,4]: - y[0,4] + r[0,4] <= 0
 mccormick2[0,5]: - y[0,5] + r[0,5] <= 0
 mccormick2[0,6]: - y[0,6] + r[0,6] <= 0
 mccormick2[0,7]: - y[0,7] + r[0,7] <= 0
 mccormick2[0,8]: - y[0,8] + r[0,8] <= 0
 mccormick2[1,2]: - y[1,2] + r[1,2] <= 0
 mccormick2[1,3]: - y[1,3] + r[1,3] <= 0
 mccormick2[1,5]: - y[1,5] + r[1,5] <= 0
 mccormick2[1,6]: - y[1,6] + r[1,6] <= 0
 mccormick2[1,8]: - y[1,8] + r[1,8] <= 0
 mccormick2[2,0]: - y[2,0] + r[2,0] <= 0
 mccormick2[2,1]: - y[2,1] + r[2,1] <= 0
 mccormick2[2,3]: - y[2,3] + r[2,3] <= 0
 mccormick2[2,5]: - y[2,5] + r[2,5] <= 0
 mccormick2[2,6]: - y[2,6] + r[2,6] <= 0
 mccormick2[2,7]: - y[2,7] + r[2,7] <= 0
 mccormick2[2,8]: - y[2,8] + r[2,8] <= 0
 mccormick2[3,1]: - y[3,1] + r[3,1] <= 0
 mccormick2[3,2]: - y[3,2] + r[3,2] <= 0
 mccormick2[3,5]: - y[3,5] + r[3,5] <= 0
 mccormick2[3,6]: - y[3,6] + r[3,6] <= 0
 mccormick2[3,8]: - y[3,8] + r[3,8] <= 0
 mccormick2[4,0]: - y[4,0] + r[4,0] <= 0
 mccormick2[4,5]: - y[4,5] + r[4,5] <= 0
 mccormick2[4,6]: - y[4,6] + r[4,6] <= 0
 mccormick2[4,7]: - y[4,7] + r[4,7] <= 0
 mccormick2[4,8]: - y[4,8] + r[4,8] <= 0
 mccormick2[5,0]: - y[5,0] + r[5,0] <= 0
 mccormick2[5,1]: - y[5,1] + r[5,1] <= 0
 mccormick2[5,2]: - y[5,2] + r[5,2] <= 0
 mccormick2[5,3]: - y[5,3] + r[5,3] <= 0
 mccormick2[5,4]: - y[5,4] + r[5,4] <= 0
 mccormick2[5,6]: - y[5,6] + r[5,6] <= 0
 mccormick2[5,7]: - y[5,7] + r[5,7] <= 0
 mccormick2[5,8]: - y[5,8] + r[5,8] <= 0
 mccormick2[6,0]: - y[6,0] + r[6,0] <= 0
 mccormick2[6,1]: - y[6,1] + r[6,1] <= 0
 mccormick2[6,2]: - y[6,2] + r[6,2] <= 0
 mccormick2[6,3]: - y[6,3] + r[6,3] <= 0
 mccormick2[6,4]: - y[6,4] + r[6,4] <= 0
 mccormick2[6,5]: - y[6,5] + r[6,5] <= 0
 mccormick2[6,7]: - y[6,7] + r[6,7] <= 0
 mccormick2[6,8]: - y[6,8] + r[6,8] <= 0
 mccormick2[7,0]: - y[7,0] + r[7,0] <= 0
 mccormick2[7,2]: - y[7,2] + r[7,2] <= 0
 mccormick2[7,4]: - y[7,4] + r[7,4] <= 0
 mccormick2[7,5]: - y[7,5] + r[7,5] <= 0
 mccormick2[7,6]: - y[7,6] + r[7,6] <= 0
 mccormick2[7,8]: - y[7,8] + r[7,8] <= 0
 mccormick2[8,0]: - y[8,0] + r[8,0] <= 0
 mccormick2[8,1]: - y[8,1] + r[8,1] <= 0
 mccormick2[8,2]: - y[8,2] + r[8,2] <= 0
 mccormick2[8,3]: - y[8,3] + r[8,3] <= 0
 mccormick2[8,4]: - y[8,4] + r[8,4] <= 0
 mccormick2[8,5]: - y[8,5] + r[8,5] <= 0
 mccormick2[8,6]: - y[8,6] + r[8,6] <= 0
 mccormick2[8,7]: - y[8,7] + r[8,7] <= 0
 mccormick3[0,2]: - y[0,2] - u[0,2] + r[0,2] >= -1
 mccormick3[0,4]: - y[0,4] - u[0,4] + r[0,4] >= -1
 mccormick3[0,5]: - y[0,5] - u[0,5] + r[0,5] >= -1
 mccormick3[0,6]: - y[0,6] - u[0,6] + r[0,6] >= -1
 mccormick3[0,7]: - y[0,7] - u[0,7] + r[0,7] >= -1
 mccormick3[0,8]: - y[0,8] - u[0,8] + r[0,8] >= -1
 mccormick3[1,2]: - y[1,2] - u[1,2] + r[1,2] >= -1
 mccormick3[1,3]: - y[1,3] - u[1,3] + r[1,3] >= -1
 mccormick3[1,5]: - y[1,5] - u[1,5] + r[1,5] >= -1
 mccormick3[1,6]: - y[1,6] - u[1,6] + r[1,6] >= -1
 mccormick3[1,8]: - y[1,8] - u[1,8] + r[1,8] >= -1
 mccormick3[2,0]: - y[2,0] - u[2,0] + r[2,0] >= -1
 mccormick3[2,1]: - y[2,1] - u[2,1] + r[2,1] >= -1
 mccormick3[2,3]: - y[2,3] - u[2,3] + r[2,3] >= -1
 mccormick3[2,5]: - y[2,5] - u[2,5] + r[2,5] >= -1
 mccormick3[2,6]: - y[2,6] - u[2,6] + r[2,6] >= -1
 mccormick3[2,7]: - y[2,7] - u[2,7] + r[2,7] >= -1
 mccormick3[2,8]: - y[2,8] - u[2,8] + r[2,8] >= -1
 mccormick3[3,1]: - y[3,1] - u[3,1] + r[3,1] >= -1
 mccormick3[3,2]: - y[3,2] - u[3,2] + r[3,2] >= -1
 mccormick3[3,5]: - y[3,5] - u[3,5] + r[3,5] >= -1
 mccormick3[3,6]: - y[3,6] - u[3,6] + r[3,6] >= -1
 mccormick3[3,8]: - y[3,8] - u[3,8] + r[3,8] >= -1
 mccormick3[4,0]: - y[4,0] - u[4,0] + r[4,0] >= -1
 mccormick3[4,5]: - y[4,5] - u[4,5] + r[4,5] >= -1
 mccormick3[4,6]: - y[4,6] - u[4,6] + r[4,6] >= -1
 mccormick3[4,7]: - y[4,7] - u[4,7] + r[4,7] >= -1
 mccormick3[4,8]: - y[4,8] - u[4,8] + r[4,8] >= -1
 mccormick3[5,0]: - y[5,0] - u[5,0] + r[5,0] >= -1
 mccormick3[5,1]: - y[5,1] - u[5,1] + r[5,1] >= -1
 mccormick3[5,2]: - y[5,2] - u[5,2] + r[5,2] >= -1
 mccormick3[5,3]: - y[5,3] - u[5,3] + r[5,3] >= -1
 mccormick3[5,4]: - y[5,4] - u[5,4] + r[5,4] >= -1
 mccormick3[5,6]: - y[5,6] - u[5,6] + r[5,6] >= -1
 mccormick3[5,7]: - y[5,7] - u[5,7] + r[5,7] >= -1
 mccormick3[5,8]: - y[5,8] - u[5,8] + r[5,8] >= -1
 mccormick3[6,0]: - y[6,0] - u[6,0] + r[6,0] >= -1
 mccormick3[6,1]: - y[6,1] - u[6,1] + r[6,1] >= -1
 mccormick3[6,2]: - y[6,2] - u[6,2] + r[6,2] >= -1
 mccormick3[6,3]: - y[6,3] - u[6,3] + r[6,3] >= -1
 mccormick3[6,4]: - y[6,4] - u[6,4] + r[6,4] >= -1
 mccormick3[6,5]: - y[6,5] - u[6,5] + r[6,5] >= -1
 mccormick3[6,7]: - y[6,7] - u[6,7] + r[6,7] >= -1
 mccormick3[6,8]: - y[6,8] - u[6,8] + r[6,8] >= -1
 mccormick3[7,0]: - y[7,0] - u[7,0] + r[7,0] >= -1
 mccormick3[7,2]: - y[7,2] - u[7,2] + r[7,2] >= -1
 mccormick3[7,4]: - y[7,4] - u[7,4] + r[7,4] >= -1
 mccormick3[7,5]: - y[7,5] - u[7,5] + r[7,5] >= -1
 mccormick3[7,6]: - y[7,6] - u[7,6] + r[7,6] >= -1
 mccormick3[7,8]: - y[7,8] - u[7,8] + r[7,8] >= -1
 mccormick3[8,0]: - y[8,0] - u[8,0] + r[8,0] >= -1
 mccormick3[8,1]: - y[8,1] - u[8,1] + r[8,1] >= -1
 mccormick3[8,2]: - y[8,2] - u[8,2] + r[8,2] >= -1
 mccormick3[8,3]: - y[8,3] - u[8,3] + r[8,3] >= -1
 mccormick3[8,4]: - y[8,4] - u[8,4] + r[8,4] >= -1
 mccormick3[8,5]: - y[8,5] - u[8,5] + r[8,5] >= -1
 mccormick3[8,6]: - y[8,6] - u[8,6] + r[8,6] >= -1
 mccormick3[8,7]: - y[8,7] - u[8,7] + r[8,7] >= -1
Bounds
Binaries
 y[0,2] y[0,4] y[0,5] y[0,6] y[0,7] y[0,8] y[1,2] y[1,3] y[1,5] y[1,6]
 y[1,8] y[2,0] y[2,1] y[2,3] y[2,5] y[2,6] y[2,7] y[2,8] y[3,1] y[3,2]
 y[3,5] y[3,6] y[3,8] y[4,0] y[4,5] y[4,6] y[4,7] y[4,8] y[5,0] y[5,1]
 y[5,2] y[5,3] y[5,4] y[5,6] y[5,7] y[5,8] y[6,0] y[6,1] y[6,2] y[6,3]
 y[6,4] y[6,5] y[6,7] y[6,8] y[7,0] y[7,2] y[7,4] y[7,5] y[7,6] y[7,8]
 y[8,0] y[8,1] y[8,2] y[8,3] y[8,4] y[8,5] y[8,6] y[8,7] x[0,2] x[0,4]
 x[0,5] x[0,6] x[0,7] x[0,8] x[1,2] x[1,3] x[1,5] x[1,6] x[1,8] x[2,0]
 x[2,1] x[2,3] x[2,5] x[2,6] x[2,7] x[2,8] x[3,1] x[3,2] x[3,5] x[3,6]
 x[3,8] x[4,0] x[4,5] x[4,6] x[4,7] x[4,8] x[5,0] x[5,1] x[5,2] x[5,3]
 x[5,4] x[5,6] x[5,7] x[5,8] x[6,0] x[6,1] x[6,2] x[6,3] x[6,4] x[6,5]
 x[6,7] x[6,8] x[7,0] x[7,2] x[7,4] x[7,5] x[7,6] x[7,8] x[8,0] x[8,1]
 x[8,2] x[8,3] x[8,4] x[8,5] x[8,6] x[8,7] u[0,2] u[0,4] u[0,5] u[0,6]
 u[0,7] u[0,8] u[1,2] u[1,3] u[1,5] u[1,6] u[1,8] u[2,0] u[2,1] u[2,3]
 u[2,5] u[2,6] u[2,7] u[2,8] u[3,1] u[3,2] u[3,5] u[3,6] u[3,8] u[4,0]
 u[4,5] u[4,6] u[4,7] u[4,8] u[5,0] u[5,1] u[5,2] u[5,3] u[5,4] u[5,6]
 u[5,7] u[5,8] u[6,0] u[6,1] u[6,2] u[6,3] u[6,4] u[6,5] u[6,7] u[6,8]
 u[7,0] u[7,2] u[7,4] u[7,5] u[7,6] u[7,8] u[8,0] u[8,1] u[8,2] u[8,3]
 u[8,4] u[8,5] u[8,6] u[8,7] r[0,2] r[0,4] r[0,5] r[0,6] r[0,7] r[0,8]
 r[1,2] r[1,3] r[1,5] r[1,6] r[1,8] r[2,0] r[2,1] r[2,3] r[2,5] r[2,6]
 r[2,7] r[2,8] r[3,1] r[3,2] r[3,5] r[3,6] r[3,8] r[4,0] r[4,5] r[4,6]
 r[4,7] r[4,8] r[5,0] r[5,1] r[5,2] r[5,3] r[5,4] r[5,6] r[5,7] r[5,8]
 r[6,0] r[6,1] r[6,2] r[6,3] r[6,4] r[6,5] r[6,7] r[6,8] r[7,0] r[7,2]
 r[7,4] r[7,5] r[7,6] r[7,8] r[8,0] r[8,1] r[8,2] r[8,3] r[8,4] r[8,5]
 r[8,6] r[8,7]
End
