instances/shortest_path/discrete_knapsack_uncertainty/nohadani_9_16.kp
14837
256

[4.028915923747237 3.1465388416142894 3.082974631104285 3.8191454046875117 0.17573852854883595 0.3029949538726707 2.809394306361682 3.931412926472949 0.8369575529831929 1.7612269905755678 3.5580190839407457 2.848184729176903 1.5959714972994663 3.2104158478069076 0.08694779295485454 1.2706788954094248 0.2125612689373546 0.6180271053009686 3.3724533507436947 3.6131303455198083 2.3093623149190763 2.236808135828606 1.6066851844772487 1.8381438143454014 3.4423933220566156 2.9313341690386796 1.0265089423292149 2.511015041242696 0.4258035258032489 2.275521219402409 3.757631087747278 1.9645244976467162 1.4942098627978002 2.2453223620154663 3.081941281693054 0.7726636193328876 0.5198155814673427 0.7463539111235418 2.125847208441678 0.6496583014703126 2.2358608307692487 4.163303514630521 4.051855932177562 3.534726547032072 0.000529549399366868 3.780978025939528 3.3799970675372846 4.289138481556204 2.1662022289021174 3.4301123446421498 1.2163571296686184 0.9008940275000971 2.87671348972965 1.6535074725489747 0.7832900373834422 1.2422220584238963 2.873922712116587 3.863761136363149]

[47 12 66 79 56 37 25 39 5 86 7 95 8 40 12 92 65 92 65 34 85 63 72 38 64 4 14 35 13 47 21 27 99 65 80 89 52 72 100 6 11 41 42 41 55 22 17 1 39 40 30 48 57 92 100 35 53 94]
